(declare-fun _for_it_115 () Int)
(declare-fun _for_it_23 () Int)
(declare-fun kfdia () Int)
(declare-fun kidia () Int)
(declare-fun klev () Int)
(declare-fun ncldtop () Int)

(assert (forall ((_if_cond_81_val (Array Int Int)) (_if_cond_82_val (Array Int Int)))
  (and
    (forall ((_for_it_117_0 Int) (_for_it_118_1 Int))
      (or
        (not (<= (+ kidia (- 1)) _for_it_117_0))
        (not (<= _for_it_118_1 (+ kfdia (- 1))))
        (not (<= (+ kidia (- 1)) _for_it_118_1))
        (not (= (select _if_cond_82_val (- (+ _for_it_115 (* 3 _for_it_23) 4) (* ncldtop 3))) 1))
        (not (= _for_it_117_0 _for_it_118_1))
        (not (= (select _if_cond_81_val (- (+ _for_it_115 (* 3 _for_it_23) 3) (* ncldtop 3))) 1))
        (not (<= _for_it_117_0 (+ kfdia (- 1))))
      )
    )
    (forall ((_for_it_117_0 Int) (_for_it_117_1 Int))
      (or
        (not (<= (+ kidia (- 1)) _for_it_117_0))
        (not (= (select _if_cond_81_val (- (+ _for_it_115 (* 3 _for_it_23) 4) (* ncldtop 3))) 1))
        (not (= _for_it_117_0 _for_it_117_1))
        (not (<= _for_it_117_1 (+ kfdia (- 1))))
        (not (<= (+ kidia (- 1)) _for_it_117_1))
        (not (= (select _if_cond_81_val (- (+ _for_it_115 (* 3 _for_it_23) 3) (* ncldtop 3))) 1))
        (not (<= _for_it_117_0 (+ kfdia (- 1))))
      )
    )
    (forall ((_for_it_116_1 Int) (_for_it_117_0 Int))
      (or
        (not (<= (+ kidia (- 1)) _for_it_117_0))
        (not (<= (+ kidia (- 1)) _for_it_116_1))
        (not (<= _for_it_116_1 (+ kfdia (- 1))))
        (not (= _for_it_115 (+ _for_it_115 1)))
        (not (= _for_it_117_0 _for_it_116_1))
        (not (= (select _if_cond_81_val (- (+ _for_it_115 (* 3 _for_it_23) 3) (* ncldtop 3))) 1))
        (not (<= _for_it_117_0 (+ kfdia (- 1))))
      )
    )
    (forall ((_for_it_116_0 Int) (_for_it_118_1 Int))
      (or
        (not (<= _for_it_116_0 (+ kfdia (- 1))))
        (not (= _for_it_116_0 _for_it_118_1))
        (not (<= (+ kidia (- 1)) _for_it_116_0))
        (not (<= _for_it_118_1 (+ kfdia (- 1))))
        (not (<= (+ kidia (- 1)) _for_it_118_1))
        (not (= _for_it_115 (+ _for_it_115 1)))
        (not (= (select _if_cond_82_val (- (+ _for_it_115 (* 3 _for_it_23) 4) (* ncldtop 3))) 1))
      )
    )
    (forall ((_for_it_119_0 Int) (_for_it_119_1 Int))
      (or
        (not (= _for_it_115 (+ _for_it_115 1)))
        (not (<= _for_it_119_1 (+ kfdia (- 1))))
        (not (<= (+ kidia (- 1)) _for_it_119_1))
        (not (<= _for_it_119_0 (+ kfdia (- 1))))
        (not (= _for_it_119_0 _for_it_119_1))
        (not (<= (+ kidia (- 1)) _for_it_119_0))
      )
    )
    (forall ((_for_it_116_0 Int) (_for_it_117_1 Int))
      (or
        (not (<= _for_it_116_0 (+ kfdia (- 1))))
        (not (<= (+ kidia (- 1)) _for_it_116_0))
        (not (= _for_it_115 (+ _for_it_115 1)))
        (not (= (select _if_cond_81_val (- (+ _for_it_115 (* 3 _for_it_23) 4) (* ncldtop 3))) 1))
        (not (<= _for_it_117_1 (+ kfdia (- 1))))
        (not (<= (+ kidia (- 1)) _for_it_117_1))
        (not (= _for_it_116_0 _for_it_117_1))
      )
    )
    (forall ((_for_it_116_0 Int) (_for_it_116_1 Int))
      (or
        (not (<= (+ kidia (- 1)) _for_it_116_1))
        (not (<= _for_it_116_0 (+ kfdia (- 1))))
        (not (<= (+ kidia (- 1)) _for_it_116_0))
        (not (= _for_it_116_0 _for_it_116_1))
        (not (= _for_it_115 (+ _for_it_115 1)))
        (not (<= _for_it_116_1 (+ kfdia (- 1))))
      )
    )
    (and
      (<= ncldtop (+ klev (- 1)))
      (<= 0 _for_it_115)
      (<= (+ _for_it_115 1) 3)
      (<= kidia (+ kfdia (- 1)))
    )
    (forall ((_for_it_118_0 Int) (_for_it_118_1 Int))
      (or
        (not (<= _for_it_118_1 (+ kfdia (- 1))))
        (not (<= (+ kidia (- 1)) _for_it_118_1))
        (not (= _for_it_118_0 _for_it_118_1))
        (not (= (select _if_cond_82_val (- (+ _for_it_115 (* 3 _for_it_23) 3) (* ncldtop 3))) 1))
        (not (= (select _if_cond_82_val (- (+ _for_it_115 (* 3 _for_it_23) 4) (* ncldtop 3))) 1))
        (not (<= _for_it_118_0 (+ kfdia (- 1))))
        (not (<= (+ kidia (- 1)) _for_it_118_0))
      )
    )
    (forall ((_for_it_117_1 Int) (_for_it_118_0 Int))
      (or
        (not (= _for_it_118_0 _for_it_117_1))
        (not (<= _for_it_117_1 (+ kfdia (- 1))))
        (not (= (select _if_cond_82_val (- (+ _for_it_115 (* 3 _for_it_23) 3) (* ncldtop 3))) 1))
        (not (= (select _if_cond_81_val (- (+ _for_it_115 (* 3 _for_it_23) 4) (* ncldtop 3))) 1))
        (not (<= _for_it_118_0 (+ kfdia (- 1))))
        (not (<= (+ kidia (- 1)) _for_it_118_0))
        (not (<= (+ kidia (- 1)) _for_it_117_1))
      )
    )
    (forall ((_for_it_116_1 Int) (_for_it_118_0 Int))
      (or
        (not (<= (+ kidia (- 1)) _for_it_116_1))
        (not (= _for_it_118_0 _for_it_116_1))
        (not (= (select _if_cond_82_val (- (+ _for_it_115 (* 3 _for_it_23) 3) (* ncldtop 3))) 1))
        (not (= _for_it_115 (+ _for_it_115 1)))
        (not (<= _for_it_118_0 (+ kfdia (- 1))))
        (not (<= (+ kidia (- 1)) _for_it_118_0))
        (not (<= _for_it_116_1 (+ kfdia (- 1))))
      )
    )
    (not (= (- (+ _for_it_115 (* 3 _for_it_23) 3) (* ncldtop 3)) (- (+ _for_it_115 (* 3 _for_it_23) 4) (* ncldtop 3))))
  )
))

(check-sat)